VRPTWMS/instances/mip/fuel_F5/4/N4-C_DV100-C_SV25_F5_3_No_1.lp
\ N4-C_DV100-C_SV25_F5_3

Minimize
  244100.0 x_d0_c1 + 244100.0 z_d0_c1 + 219300.0 x_d0_c2 + 219300.0 z_d0_c2 + 191000.0 x_d0_c3 + 191000.0 z_d0_c3 + 234300.0 x_d0_c4 + 234300.0 z_d0_c4 + 230000.0 x_c1_c2 + 230000.0 x_c2_c1 + 230000.0 z_c1_c2 + 230000.0 z_c2_c1 + 340100.0 x_c1_c3 + 340100.0 x_c3_c1 + 340100.0 z_c1_c3 + 340100.0 z_c3_c1 + 474200.0 x_c1_c4 + 474200.0 x_c4_c1 + 474200.0 z_c1_c4 + 474200.0 z_c4_c1 + 405000.0 x_c2_c3 + 405000.0 x_c3_c2 + 405000.0 z_c2_c3 + 405000.0 z_c3_c2 + 361400.0 x_c2_c4 + 361400.0 x_c4_c2 + 361400.0 z_c2_c4 + 361400.0 z_c4_c2 + 310200.0 x_c3_c4 + 310200.0 x_c4_c3 + 310200.0 z_c3_c4 + 310200.0 z_c4_c3 + 244100.0 x_c1_dN + 244100.0 z_c1_dN + 219300.0 x_c2_dN + 219300.0 z_c2_dN + 191000.0 x_c3_dN + 191000.0 z_c3_dN + 234300.0 x_c4_dN + 234300.0 z_c4_dN + 1.0E7 x_d0_c1 + 1.0E7 z_d0_c1 + 1.0E7 x_d0_c2 + 1.0E7 z_d0_c2 + 1.0E7 x_d0_c3 + 1.0E7 z_d0_c3 + 1.0E7 x_d0_c4 + 1.0E7 z_d0_c4
Subject To
  Successor_DV_c1: x_c1_c2 + x_c1_c3 + x_c1_c4 + x_c1_dN = 1
  Successor_DV_c2: x_c2_c1 + x_c2_c3 + x_c2_c4 + x_c2_dN = 1
  Successor_DV_c3: x_c3_c1 + x_c3_c2 + x_c3_c4 + x_c3_dN = 1
  Successor_DV_c4: x_c4_c1 + x_c4_c2 + x_c4_c3 + x_c4_dN = 1
  Successor_SV_c1: z_c1_c2 + z_c1_c3 + z_c1_c4 + z_c1_dN <= 1
  Successor_SV_c2: z_c2_c1 + z_c2_c3 + z_c2_c4 + z_c2_dN <= 1
  Successor_SV_c3: z_c3_c1 + z_c3_c2 + z_c3_c4 + z_c3_dN <= 1
  Successor_SV_c4: z_c4_c1 + z_c4_c2 + z_c4_c3 + z_c4_dN <= 1
  Flow_DV_c1: x_d0_c1 + x_c2_c1 + x_c3_c1 + x_c4_c1 - x_c1_dN - x_c1_c2 - x_c1_c3 - x_c1_c4 = 0
  Flow_DV_c2: x_d0_c2 + x_c1_c2 + x_c3_c2 + x_c4_c2 - x_c2_dN - x_c2_c1 - x_c2_c3 - x_c2_c4 = 0
  Flow_DV_c3: x_d0_c3 + x_c1_c3 + x_c2_c3 + x_c4_c3 - x_c3_dN - x_c3_c1 - x_c3_c2 - x_c3_c4 = 0
  Flow_DV_c4: x_d0_c4 + x_c1_c4 + x_c2_c4 + x_c3_c4 - x_c4_dN - x_c4_c1 - x_c4_c2 - x_c4_c3 = 0
  Flow_SV_c1: z_d0_c1 + z_c2_c1 + z_c3_c1 + z_c4_c1 - z_c1_dN - z_c1_c2 - z_c1_c3 - z_c1_c4 = 0
  Flow_SV_c2: z_d0_c2 + z_c1_c2 + z_c3_c2 + z_c4_c2 - z_c2_dN - z_c2_c1 - z_c2_c3 - z_c2_c4 = 0
  Flow_SV_c3: z_d0_c3 + z_c1_c3 + z_c2_c3 + z_c4_c3 - z_c3_dN - z_c3_c1 - z_c3_c2 - z_c3_c4 = 0
  Flow_SV_c4: z_d0_c4 + z_c1_c4 + z_c2_c4 + z_c3_c4 - z_c4_dN - z_c4_c1 - z_c4_c2 - z_c4_c3 = 0
  travelDV_d0_c1: tauD_d0 - tauD_c1 + 1061025.0 x_d0_c1 <= 1000000.0
  travelDV_d0_c2: tauD_d0 - tauD_c2 + 1054825.0 x_d0_c2 <= 1000000.0
  travelDV_d0_c3: tauD_d0 - tauD_c3 + 1047750.0 x_d0_c3 <= 1000000.0
  travelDV_d0_c4: tauD_d0 - tauD_c4 + 1058575.0 x_d0_c4 <= 1000000.0
  travelDV_c1_c2: tauD_c1 - tauD_c2 + 1117500.0 x_c1_c2 + 80000.0 p_1 <= 1000000.0
  travelDV_c1_c3: tauD_c1 - tauD_c3 + 1145025.0 x_c1_c3 + 80000.0 p_1 <= 1000000.0
  travelDV_c1_c4: tauD_c1 - tauD_c4 + 1178550.0 x_c1_c4 + 80000.0 p_1 <= 1000000.0
  travelDV_c2_c1: tauD_c2 - tauD_c1 + 1117500.0 x_c2_c1 + 80000.0 p_2 <= 1000000.0
  travelDV_c2_c3: tauD_c2 - tauD_c3 + 1161250.0 x_c2_c3 + 80000.0 p_2 <= 1000000.0
  travelDV_c2_c4: tauD_c2 - tauD_c4 + 1150350.0 x_c2_c4 + 80000.0 p_2 <= 1000000.0
  travelDV_c3_c1: tauD_c3 - tauD_c1 + 1125025.0 x_c3_c1 + 80000.0 p_3 <= 1000000.0
  travelDV_c3_c2: tauD_c3 - tauD_c2 + 1141250.0 x_c3_c2 + 80000.0 p_3 <= 1000000.0
  travelDV_c3_c4: tauD_c3 - tauD_c4 + 1117550.0 x_c3_c4 + 80000.0 p_3 <= 1000000.0
  travelDV_c4_c1: tauD_c4 - tauD_c1 + 1168550.0 x_c4_c1 + 80000.0 p_4 <= 1000000.0
  travelDV_c4_c2: tauD_c4 - tauD_c2 + 1140350.0 x_c4_c2 + 80000.0 p_4 <= 1000000.0
  travelDV_c4_c3: tauD_c4 - tauD_c3 + 1127550.0 x_c4_c3 + 80000.0 p_4 <= 1000000.0
  TravelSV_d0_c1: tauS_d0 - tauS_c1 + 1000000.0 z_d0_c1 <= 938975.0
  TravelSV_d0_c2: tauS_d0 - tauS_c2 + 1000000.0 z_d0_c2 <= 945175.0
  TravelSV_d0_c3: tauS_d0 - tauS_c3 + 1000000.0 z_d0_c3 <= 952250.0
  TravelSV_d0_c4: tauS_d0 - tauS_c4 + 1000000.0 z_d0_c4 <= 941425.0
  TravelSV_d0_dN: tauS_d0 - tauS_dN + 1000000.0 z_d0_dN <= 1000000.0
  TravelSV_c1_c2: tauS_c1 - tauS_c2 + 1000000.0 z_c1_c2 <= 862500.0
  TravelSV_c1_c3: tauS_c1 - tauS_c3 + 1000000.0 z_c1_c3 <= 834975.0
  TravelSV_c1_c4: tauS_c1 - tauS_c4 + 1000000.0 z_c1_c4 <= 801450.0
  TravelSV_c1_dN: tauS_c1 - tauS_dN + 1000000.0 z_c1_dN <= 858975.0
  TravelSV_c2_c1: tauS_c2 - tauS_c1 + 1000000.0 z_c2_c1 <= 862500.0
  TravelSV_c2_c3: tauS_c2 - tauS_c3 + 1000000.0 z_c2_c3 <= 818750.0
  TravelSV_c2_c4: tauS_c2 - tauS_c4 + 1000000.0 z_c2_c4 <= 829650.0
  TravelSV_c2_dN: tauS_c2 - tauS_dN + 1000000.0 z_c2_dN <= 865175.0
  TravelSV_c3_c1: tauS_c3 - tauS_c1 + 1000000.0 z_c3_c1 <= 834975.0
  TravelSV_c3_c2: tauS_c3 - tauS_c2 + 1000000.0 z_c3_c2 <= 818750.0
  TravelSV_c3_c4: tauS_c3 - tauS_c4 + 1000000.0 z_c3_c4 <= 842450.0
  TravelSV_c3_dN: tauS_c3 - tauS_dN + 1000000.0 z_c3_dN <= 872250.0
  TravelSV_c4_c1: tauS_c4 - tauS_c1 + 1000000.0 z_c4_c1 <= 801450.0
  TravelSV_c4_c2: tauS_c4 - tauS_c2 + 1000000.0 z_c4_c2 <= 829650.0
  TravelSV_c4_c3: tauS_c4 - tauS_c3 + 1000000.0 z_c4_c3 <= 842450.0
  TravelSV_c4_dN: tauS_c4 - tauS_dN + 1000000.0 z_c4_dN <= 861425.0
  time_window_c1_e: tauD_c1 + 80000.0 o_1 >= 650000.0
  time_window_c1_l: tauD_c1 + 80000.0 o_1 <= 800000.0
  time_window_c2_e: tauD_c2 + 80000.0 o_2 >= 50000.0
  time_window_c2_l: tauD_c2 + 80000.0 o_2 <= 200000.0
  time_window_c3_e: tauD_c3 + 80000.0 o_3 >= 50000.0
  time_window_c3_l: tauD_c3 + 80000.0 o_3 <= 200000.0
  time_window_c4_e: tauD_c4 + 80000.0 o_4 >= 300000.0
  time_window_c4_l: tauD_c4 + 80000.0 o_4 <= 450000.0
  SyncA_c1_c2_c2: 60000.0 o_1 + 1000000.0 x_c1_c2 - tauD_c2 - 57500.0 z_c1_c2 + [ tauS_c2 * z_c1_c2 ] <= 942500.0
  SyncA_c1_c2_c3: 60000.0 o_1 + 1000000.0 x_c1_c2 - tauD_c2 - 85025.0 z_c1_c3 + [ tauS_c3 * z_c1_c3 ] <= 942500.0
  SyncA_c1_c2_c4: 60000.0 o_1 + 1000000.0 x_c1_c2 - tauD_c2 - 118550.0 z_c1_c4 + [ tauS_c4 * z_c1_c4 ] <= 942500.0
  SyncA_c1_c2_dN: 60000.0 o_1 + 1000000.0 x_c1_c2 - tauD_c2 - 61025.0 z_c1_dN + [ tauS_dN * z_c1_dN ] <= 942500.0
  SyncA_c1_c3_c2: 60000.0 o_1 + 1000000.0 x_c1_c3 - tauD_c3 - 57500.0 z_c1_c2 + [ tauS_c2 * z_c1_c2 ] <= 914975.0
  SyncA_c1_c3_c3: 60000.0 o_1 + 1000000.0 x_c1_c3 - tauD_c3 - 85025.0 z_c1_c3 + [ tauS_c3 * z_c1_c3 ] <= 914975.0
  SyncA_c1_c3_c4: 60000.0 o_1 + 1000000.0 x_c1_c3 - tauD_c3 - 118550.0 z_c1_c4 + [ tauS_c4 * z_c1_c4 ] <= 914975.0
  SyncA_c1_c3_dN: 60000.0 o_1 + 1000000.0 x_c1_c3 - tauD_c3 - 61025.0 z_c1_dN + [ tauS_dN * z_c1_dN ] <= 914975.0
  SyncA_c1_c4_c2: 60000.0 o_1 + 1000000.0 x_c1_c4 - tauD_c4 - 57500.0 z_c1_c2 + [ tauS_c2 * z_c1_c2 ] <= 881450.0
  SyncA_c1_c4_c3: 60000.0 o_1 + 1000000.0 x_c1_c4 - tauD_c4 - 85025.0 z_c1_c3 + [ tauS_c3 * z_c1_c3 ] <= 881450.0
  SyncA_c1_c4_c4: 60000.0 o_1 + 1000000.0 x_c1_c4 - tauD_c4 - 118550.0 z_c1_c4 + [ tauS_c4 * z_c1_c4 ] <= 881450.0
  SyncA_c1_c4_dN: 60000.0 o_1 + 1000000.0 x_c1_c4 - tauD_c4 - 61025.0 z_c1_dN + [ tauS_dN * z_c1_dN ] <= 881450.0
  SyncA_c1_dN_c2: 60000.0 o_1 + 1000000.0 x_c1_dN - tauD_dN - 57500.0 z_c1_c2 + [ tauS_c2 * z_c1_c2 ] <= 938975.0
  SyncA_c1_dN_c3: 60000.0 o_1 + 1000000.0 x_c1_dN - tauD_dN - 85025.0 z_c1_c3 + [ tauS_c3 * z_c1_c3 ] <= 938975.0
  SyncA_c1_dN_c4: 60000.0 o_1 + 1000000.0 x_c1_dN - tauD_dN - 118550.0 z_c1_c4 + [ tauS_c4 * z_c1_c4 ] <= 938975.0
  SyncA_c1_dN_dN: 60000.0 o_1 + 1000000.0 x_c1_dN - tauD_dN - 61025.0 z_c1_dN + [ tauS_dN * z_c1_dN ] <= 938975.0
  SyncA_c2_c1_c1: 60000.0 o_2 + 1000000.0 x_c2_c1 - tauD_c1 - 57500.0 z_c2_c1 + [ tauS_c1 * z_c2_c1 ] <= 942500.0
  SyncA_c2_c1_c3: 60000.0 o_2 + 1000000.0 x_c2_c1 - tauD_c1 - 101250.0 z_c2_c3 + [ tauS_c3 * z_c2_c3 ] <= 942500.0
  SyncA_c2_c1_c4: 60000.0 o_2 + 1000000.0 x_c2_c1 - tauD_c1 - 90350.0 z_c2_c4 + [ tauS_c4 * z_c2_c4 ] <= 942500.0
  SyncA_c2_c1_dN: 60000.0 o_2 + 1000000.0 x_c2_c1 - tauD_c1 - 54825.0 z_c2_dN + [ tauS_dN * z_c2_dN ] <= 942500.0
  SyncA_c2_c3_c1: 60000.0 o_2 + 1000000.0 x_c2_c3 - tauD_c3 - 57500.0 z_c2_c1 + [ tauS_c1 * z_c2_c1 ] <= 898750.0
  SyncA_c2_c3_c3: 60000.0 o_2 + 1000000.0 x_c2_c3 - tauD_c3 - 101250.0 z_c2_c3 + [ tauS_c3 * z_c2_c3 ] <= 898750.0
  SyncA_c2_c3_c4: 60000.0 o_2 + 1000000.0 x_c2_c3 - tauD_c3 - 90350.0 z_c2_c4 + [ tauS_c4 * z_c2_c4 ] <= 898750.0
  SyncA_c2_c3_dN: 60000.0 o_2 + 1000000.0 x_c2_c3 - tauD_c3 - 54825.0 z_c2_dN + [ tauS_dN * z_c2_dN ] <= 898750.0
  SyncA_c2_c4_c1: 60000.0 o_2 + 1000000.0 x_c2_c4 - tauD_c4 - 57500.0 z_c2_c1 + [ tauS_c1 * z_c2_c1 ] <= 909650.0
  SyncA_c2_c4_c3: 60000.0 o_2 + 1000000.0 x_c2_c4 - tauD_c4 - 101250.0 z_c2_c3 + [ tauS_c3 * z_c2_c3 ] <= 909650.0
  SyncA_c2_c4_c4: 60000.0 o_2 + 1000000.0 x_c2_c4 - tauD_c4 - 90350.0 z_c2_c4 + [ tauS_c4 * z_c2_c4 ] <= 909650.0
  SyncA_c2_c4_dN: 60000.0 o_2 + 1000000.0 x_c2_c4 - tauD_c4 - 54825.0 z_c2_dN + [ tauS_dN * z_c2_dN ] <= 909650.0
  SyncA_c2_dN_c1: 60000.0 o_2 + 1000000.0 x_c2_dN - tauD_dN - 57500.0 z_c2_c1 + [ tauS_c1 * z_c2_c1 ] <= 945175.0
  SyncA_c2_dN_c3: 60000.0 o_2 + 1000000.0 x_c2_dN - tauD_dN - 101250.0 z_c2_c3 + [ tauS_c3 * z_c2_c3 ] <= 945175.0
  SyncA_c2_dN_c4: 60000.0 o_2 + 1000000.0 x_c2_dN - tauD_dN - 90350.0 z_c2_c4 + [ tauS_c4 * z_c2_c4 ] <= 945175.0
  SyncA_c2_dN_dN: 60000.0 o_2 + 1000000.0 x_c2_dN - tauD_dN - 54825.0 z_c2_dN + [ tauS_dN * z_c2_dN ] <= 945175.0
  SyncA_c3_c1_c1: 40000.0 o_3 + 1000000.0 x_c3_c1 - tauD_c1 - 85025.0 z_c3_c1 + [ tauS_c1 * z_c3_c1 ] <= 914975.0
  SyncA_c3_c1_c2: 40000.0 o_3 + 1000000.0 x_c3_c1 - tauD_c1 - 101250.0 z_c3_c2 + [ tauS_c2 * z_c3_c2 ] <= 914975.0
  SyncA_c3_c1_c4: 40000.0 o_3 + 1000000.0 x_c3_c1 - tauD_c1 - 77550.0 z_c3_c4 + [ tauS_c4 * z_c3_c4 ] <= 914975.0
  SyncA_c3_c1_dN: 40000.0 o_3 + 1000000.0 x_c3_c1 - tauD_c1 - 47750.0 z_c3_dN + [ tauS_dN * z_c3_dN ] <= 914975.0
  SyncA_c3_c2_c1: 40000.0 o_3 + 1000000.0 x_c3_c2 - tauD_c2 - 85025.0 z_c3_c1 + [ tauS_c1 * z_c3_c1 ] <= 898750.0
  SyncA_c3_c2_c2: 40000.0 o_3 + 1000000.0 x_c3_c2 - tauD_c2 - 101250.0 z_c3_c2 + [ tauS_c2 * z_c3_c2 ] <= 898750.0
  SyncA_c3_c2_c4: 40000.0 o_3 + 1000000.0 x_c3_c2 - tauD_c2 - 77550.0 z_c3_c4 + [ tauS_c4 * z_c3_c4 ] <= 898750.0
  SyncA_c3_c2_dN: 40000.0 o_3 + 1000000.0 x_c3_c2 - tauD_c2 - 47750.0 z_c3_dN + [ tauS_dN * z_c3_dN ] <= 898750.0
  SyncA_c3_c4_c1: 40000.0 o_3 + 1000000.0 x_c3_c4 - tauD_c4 - 85025.0 z_c3_c1 + [ tauS_c1 * z_c3_c1 ] <= 922450.0
  SyncA_c3_c4_c2: 40000.0 o_3 + 1000000.0 x_c3_c4 - tauD_c4 - 101250.0 z_c3_c2 + [ tauS_c2 * z_c3_c2 ] <= 922450.0
  SyncA_c3_c4_c4: 40000.0 o_3 + 1000000.0 x_c3_c4 - tauD_c4 - 77550.0 z_c3_c4 + [ tauS_c4 * z_c3_c4 ] <= 922450.0
  SyncA_c3_c4_dN: 40000.0 o_3 + 1000000.0 x_c3_c4 - tauD_c4 - 47750.0 z_c3_dN + [ tauS_dN * z_c3_dN ] <= 922450.0
  SyncA_c3_dN_c1: 40000.0 o_3 + 1000000.0 x_c3_dN - tauD_dN - 85025.0 z_c3_c1 + [ tauS_c1 * z_c3_c1 ] <= 952250.0
  SyncA_c3_dN_c2: 40000.0 o_3 + 1000000.0 x_c3_dN - tauD_dN - 101250.0 z_c3_c2 + [ tauS_c2 * z_c3_c2 ] <= 952250.0
  SyncA_c3_dN_c4: 40000.0 o_3 + 1000000.0 x_c3_dN - tauD_dN - 77550.0 z_c3_c4 + [ tauS_c4 * z_c3_c4 ] <= 952250.0
  SyncA_c3_dN_dN: 40000.0 o_3 + 1000000.0 x_c3_dN - tauD_dN - 47750.0 z_c3_dN + [ tauS_dN * z_c3_dN ] <= 952250.0
  SyncA_c4_c1_c1: 50000.0 o_4 + 1000000.0 x_c4_c1 - tauD_c1 - 118550.0 z_c4_c1 + [ tauS_c1 * z_c4_c1 ] <= 881450.0
  SyncA_c4_c1_c2: 50000.0 o_4 + 1000000.0 x_c4_c1 - tauD_c1 - 90350.0 z_c4_c2 + [ tauS_c2 * z_c4_c2 ] <= 881450.0
  SyncA_c4_c1_c3: 50000.0 o_4 + 1000000.0 x_c4_c1 - tauD_c1 - 77550.0 z_c4_c3 + [ tauS_c3 * z_c4_c3 ] <= 881450.0
  SyncA_c4_c1_dN: 50000.0 o_4 + 1000000.0 x_c4_c1 - tauD_c1 - 58575.0 z_c4_dN + [ tauS_dN * z_c4_dN ] <= 881450.0
  SyncA_c4_c2_c1: 50000.0 o_4 + 1000000.0 x_c4_c2 - tauD_c2 - 118550.0 z_c4_c1 + [ tauS_c1 * z_c4_c1 ] <= 909650.0
  SyncA_c4_c2_c2: 50000.0 o_4 + 1000000.0 x_c4_c2 - tauD_c2 - 90350.0 z_c4_c2 + [ tauS_c2 * z_c4_c2 ] <= 909650.0
  SyncA_c4_c2_c3: 50000.0 o_4 + 1000000.0 x_c4_c2 - tauD_c2 - 77550.0 z_c4_c3 + [ tauS_c3 * z_c4_c3 ] <= 909650.0
  SyncA_c4_c2_dN: 50000.0 o_4 + 1000000.0 x_c4_c2 - tauD_c2 - 58575.0 z_c4_dN + [ tauS_dN * z_c4_dN ] <= 909650.0
  SyncA_c4_c3_c1: 50000.0 o_4 + 1000000.0 x_c4_c3 - tauD_c3 - 118550.0 z_c4_c1 + [ tauS_c1 * z_c4_c1 ] <= 922450.0
  SyncA_c4_c3_c2: 50000.0 o_4 + 1000000.0 x_c4_c3 - tauD_c3 - 90350.0 z_c4_c2 + [ tauS_c2 * z_c4_c2 ] <= 922450.0
  SyncA_c4_c3_c3: 50000.0 o_4 + 1000000.0 x_c4_c3 - tauD_c3 - 77550.0 z_c4_c3 + [ tauS_c3 * z_c4_c3 ] <= 922450.0
  SyncA_c4_c3_dN: 50000.0 o_4 + 1000000.0 x_c4_c3 - tauD_c3 - 58575.0 z_c4_dN + [ tauS_dN * z_c4_dN ] <= 922450.0
  SyncA_c4_dN_c1: 50000.0 o_4 + 1000000.0 x_c4_dN - tauD_dN - 118550.0 z_c4_c1 + [ tauS_c1 * z_c4_c1 ] <= 941425.0
  SyncA_c4_dN_c2: 50000.0 o_4 + 1000000.0 x_c4_dN - tauD_dN - 90350.0 z_c4_c2 + [ tauS_c2 * z_c4_c2 ] <= 941425.0
  SyncA_c4_dN_c3: 50000.0 o_4 + 1000000.0 x_c4_dN - tauD_dN - 77550.0 z_c4_c3 + [ tauS_c3 * z_c4_c3 ] <= 941425.0
  SyncA_c4_dN_dN: 50000.0 o_4 + 1000000.0 x_c4_dN - tauD_dN - 58575.0 z_c4_dN + [ tauS_dN * z_c4_dN ] <= 941425.0
  SVFirst_c1_c2: tauS_c2 - tauD_c1 + 60000.0 o_1 - 1000000.0 z_c1_c2 >= -802500.0
  SVFirst_c1_c3: tauS_c3 - tauD_c1 + 60000.0 o_1 - 1000000.0 z_c1_c3 >= -774975.0
  SVFirst_c1_c4: tauS_c4 - tauD_c1 + 60000.0 o_1 - 1000000.0 z_c1_c4 >= -741450.0
  SVFirst_c1_dN:  tauS_dN - tauD_c1 + 60000.0 o_1 - 1000000.0 z_c1_dN >= -798975.0
  SVFirst_c2_c1: tauS_c1 - tauD_c2 + 60000.0 o_2 - 1000000.0 z_c2_c1 >= -802500.0
  SVFirst_c2_c3: tauS_c3 - tauD_c2 + 60000.0 o_2 - 1000000.0 z_c2_c3 >= -758750.0
  SVFirst_c2_c4: tauS_c4 - tauD_c2 + 60000.0 o_2 - 1000000.0 z_c2_c4 >= -769650.0
  SVFirst_c2_dN:  tauS_dN - tauD_c2 + 60000.0 o_2 - 1000000.0 z_c2_dN >= -805175.0
  SVFirst_c3_c1: tauS_c1 - tauD_c3 + 40000.0 o_3 - 1000000.0 z_c3_c1 >= -794975.0
  SVFirst_c3_c2: tauS_c2 - tauD_c3 + 40000.0 o_3 - 1000000.0 z_c3_c2 >= -778750.0
  SVFirst_c3_c4: tauS_c4 - tauD_c3 + 40000.0 o_3 - 1000000.0 z_c3_c4 >= -802450.0
  SVFirst_c3_dN:  tauS_dN - tauD_c3 + 40000.0 o_3 - 1000000.0 z_c3_dN >= -832250.0
  SVFirst_c4_c1: tauS_c1 - tauD_c4 + 50000.0 o_4 - 1000000.0 z_c4_c1 >= -751450.0
  SVFirst_c4_c2: tauS_c2 - tauD_c4 + 50000.0 o_4 - 1000000.0 z_c4_c2 >= -779650.0
  SVFirst_c4_c3: tauS_c3 - tauD_c4 + 50000.0 o_4 - 1000000.0 z_c4_c3 >= -792450.0
  SVFirst_c4_dN:  tauS_dN - tauD_c4 + 50000.0 o_4 - 1000000.0 z_c4_dN >= -811425.0
  Precedence_Swap_c1:  p_1 - z_d0_c1 - z_c2_c1 - z_c3_c1 - z_c4_c1 = 0
  Precedence_Swap_c2:  p_2 - z_d0_c2 - z_c1_c2 - z_c3_c2 - z_c4_c2 = 0
  Precedence_Swap_c3:  p_3 - z_d0_c3 - z_c1_c3 - z_c2_c3 - z_c4_c3 = 0
  Precedence_Swap_c4:  p_4 - z_d0_c4 - z_c1_c4 - z_c2_c4 - z_c3_c4 = 0
  Order_c1:  o_1 - p_1 <= 0
  Order_c2:  o_2 - p_2 <= 0
  Order_c3:  o_3 - p_3 <= 0
  Order_c4:  o_4 - p_4 <= 0
  WorkingTimeS_c1:  tauS_c1 <= 858975.0
  WorkingTimeS_c2:  tauS_c2 <= 865175.0
  WorkingTimeS_c3:  tauS_c3 <= 872250.0
  WorkingTimeS_c4:  tauS_c4 <= 861425.0
  Freight_c1_c2:  k_c2 - k_c1 + 1000000.0 x_c1_c2 <= 960000.0
  Freight_c1_c3:  k_c3 - k_c1 + 1000000.0 x_c1_c3 <= 960000.0
  Freight_c1_c4:  k_c4 - k_c1 + 1000000.0 x_c1_c4 <= 960000.0
  Freight_c1_dN:  k_dN - k_c1 + 1000000.0 x_c1_dN <= 960000.0
  Freight_c2_c1:  k_c1 - k_c2 + 1000000.0 x_c2_c1 <= 960000.0
  Freight_c2_c3:  k_c3 - k_c2 + 1000000.0 x_c2_c3 <= 960000.0
  Freight_c2_c4:  k_c4 - k_c2 + 1000000.0 x_c2_c4 <= 960000.0
  Freight_c2_dN:  k_dN - k_c2 + 1000000.0 x_c2_dN <= 960000.0
  Freight_c3_c1:  k_c1 - k_c3 + 1000000.0 x_c3_c1 <= 960000.0
  Freight_c3_c2:  k_c2 - k_c3 + 1000000.0 x_c3_c2 <= 960000.0
  Freight_c3_c4:  k_c4 - k_c3 + 1000000.0 x_c3_c4 <= 960000.0
  Freight_c3_dN:  k_dN - k_c3 + 1000000.0 x_c3_dN <= 960000.0
  Freight_c4_c1:  k_c1 - k_c4 + 1000000.0 x_c4_c1 <= 960000.0
  Freight_c4_c2:  k_c2 - k_c4 + 1000000.0 x_c4_c2 <= 960000.0
  Freight_c4_c3:  k_c3 - k_c4 + 1000000.0 x_c4_c3 <= 960000.0
  Freight_c4_dN:  k_dN - k_c4 + 1000000.0 x_c4_dN <= 960000.0
  FuelDV_d0_c1:  phi_c1 + 66330.0 x_d0_c1 <= 100000.0
  FuelDV_d0_c2:  phi_c2 + 64671.0 x_d0_c2 <= 100000.0
  FuelDV_d0_c3:  phi_c3 + 62778.0 x_d0_c3 <= 100000.0
  FuelDV_d0_c4:  phi_c4 + 65675.0 x_d0_c4 <= 100000.0
  FuelDV_c1_c2:  phi_c2 - phi_c1 + 65387.0 x_c1_c2 + [ phi_c1 * p_1 - 50000.0 x_c1_c2 * p_1 ] <= 50000.0
  FuelDV_c1_c3:  phi_c3 - phi_c1 + 72753.0 x_c1_c3 + [ phi_c1 * p_1 - 50000.0 x_c1_c3 * p_1 ] <= 50000.0
  FuelDV_c1_c4:  phi_c4 - phi_c1 + 81724.0 x_c1_c4 + [ phi_c1 * p_1 - 50000.0 x_c1_c4 * p_1 ] <= 50000.0
  FuelDV_c1_dN:  phi_dN - phi_c1 + 66330.0 x_c1_dN + [ phi_c1 * p_1 - 50000.0 x_c1_dN * p_1 ] <= 50000.0
  FuelDV_c2_c1:  phi_c1 - phi_c2 + 65387.0 x_c2_c1 + [ phi_c2 * p_2 - 50000.0 x_c2_c1 * p_2 ] <= 50000.0
  FuelDV_c2_c3:  phi_c3 - phi_c2 + 77095.0 x_c2_c3 + [ phi_c2 * p_2 - 50000.0 x_c2_c3 * p_2 ] <= 50000.0
  FuelDV_c2_c4:  phi_c4 - phi_c2 + 74178.0 x_c2_c4 + [ phi_c2 * p_2 - 50000.0 x_c2_c4 * p_2 ] <= 50000.0
  FuelDV_c2_dN:  phi_dN - phi_c2 + 64671.0 x_c2_dN + [ phi_c2 * p_2 - 50000.0 x_c2_dN * p_2 ] <= 50000.0
  FuelDV_c3_c1:  phi_c1 - phi_c3 + 72753.0 x_c3_c1 + [ phi_c3 * p_3 - 50000.0 x_c3_c1 * p_3 ] <= 50000.0
  FuelDV_c3_c2:  phi_c2 - phi_c3 + 77095.0 x_c3_c2 + [ phi_c3 * p_3 - 50000.0 x_c3_c2 * p_3 ] <= 50000.0
  FuelDV_c3_c4:  phi_c4 - phi_c3 + 70752.0 x_c3_c4 + [ phi_c3 * p_3 - 50000.0 x_c3_c4 * p_3 ] <= 50000.0
  FuelDV_c3_dN:  phi_dN - phi_c3 + 62778.0 x_c3_dN + [ phi_c3 * p_3 - 50000.0 x_c3_dN * p_3 ] <= 50000.0
  FuelDV_c4_c1:  phi_c1 - phi_c4 + 81724.0 x_c4_c1 + [ phi_c4 * p_4 - 50000.0 x_c4_c1 * p_4 ] <= 50000.0
  FuelDV_c4_c2:  phi_c2 - phi_c4 + 74178.0 x_c4_c2 + [ phi_c4 * p_4 - 50000.0 x_c4_c2 * p_4 ] <= 50000.0
  FuelDV_c4_c3:  phi_c3 - phi_c4 + 70752.0 x_c4_c3 + [ phi_c4 * p_4 - 50000.0 x_c4_c3 * p_4 ] <= 50000.0
  FuelDV_c4_dN:  phi_dN - phi_c4 + 65675.0 x_c4_dN + [ phi_c4 * p_4 - 50000.0 x_c4_dN * p_4 ] <= 50000.0
  FreightSV_c1_c2:  pi_c2 - pi_c1 - phi_c1 + 250000.0 z_c1_c2 <= 200000.0
  FreightSV_c1_c3:  pi_c3 - pi_c1 - phi_c1 + 250000.0 z_c1_c3 <= 200000.0
  FreightSV_c1_c4:  pi_c4 - pi_c1 - phi_c1 + 250000.0 z_c1_c4 <= 200000.0
  FreightSV_c1_dN:  pi_dN - pi_c1 - phi_c1 + 250000.0 z_c1_dN <= 200000.0
  FreightSV_c2_c1:  pi_c1 - pi_c2 - phi_c2 + 250000.0 z_c2_c1 <= 200000.0
  FreightSV_c2_c3:  pi_c3 - pi_c2 - phi_c2 + 250000.0 z_c2_c3 <= 200000.0
  FreightSV_c2_c4:  pi_c4 - pi_c2 - phi_c2 + 250000.0 z_c2_c4 <= 200000.0
  FreightSV_c2_dN:  pi_dN - pi_c2 - phi_c2 + 250000.0 z_c2_dN <= 200000.0
  FreightSV_c3_c1:  pi_c1 - pi_c3 - phi_c3 + 250000.0 z_c3_c1 <= 200000.0
  FreightSV_c3_c2:  pi_c2 - pi_c3 - phi_c3 + 250000.0 z_c3_c2 <= 200000.0
  FreightSV_c3_c4:  pi_c4 - pi_c3 - phi_c3 + 250000.0 z_c3_c4 <= 200000.0
  FreightSV_c3_dN:  pi_dN - pi_c3 - phi_c3 + 250000.0 z_c3_dN <= 200000.0
  FreightSV_c4_c1:  pi_c1 - pi_c4 - phi_c4 + 250000.0 z_c4_c1 <= 200000.0
  FreightSV_c4_c2:  pi_c2 - pi_c4 - phi_c4 + 250000.0 z_c4_c2 <= 200000.0
  FreightSV_c4_c3:  pi_c3 - pi_c4 - phi_c4 + 250000.0 z_c4_c3 <= 200000.0
  FreightSV_c4_dN:  pi_dN - pi_c4 - phi_c4 + 250000.0 z_c4_dN <= 200000.0
  WorkingTimeD_c1:  tauD_c1 + 80000.0 p_1 <= 878975.0
  WorkingTimeD_c2:  tauD_c2 + 80000.0 p_2 <= 885175.0
  WorkingTimeD_c3:  tauD_c3 + 80000.0 p_3 <= 912250.0
  WorkingTimeD_c4:  tauD_c4 + 80000.0 p_4 <= 891425.0
Bounds
0 <= k_c1 <= 1000000.0
0 <= k_c2 <= 1000000.0
0 <= k_c3 <= 1000000.0
0 <= k_c4 <= 1000000.0
0 <= k_dN <= 1000000.0
0 <= phi_c1 <= 50000.0
0 <= phi_c2 <= 50000.0
0 <= phi_c3 <= 50000.0
0 <= phi_c4 <= 50000.0
0 <= phi_dN <= 50000.0
0 <= pi_c1 <= 250000.0
0 <= pi_c2 <= 250000.0
0 <= pi_c3 <= 250000.0
0 <= pi_c4 <= 250000.0
0 <= pi_dN <= 250000.0
0 <= tauD_c1 <= 1000000.0
0 <= tauD_c2 <= 1000000.0
0 <= tauD_c3 <= 1000000.0
0 <= tauD_c4 <= 1000000.0
0 <= tauD_d0 <= 1000000.0
0 <= tauD_dN <= 1000000.0
0 <= tauS_c1 <= 1000000.0
0 <= tauS_c2 <= 1000000.0
0 <= tauS_c3 <= 1000000.0
0 <= tauS_c4 <= 1000000.0
0 <= tauS_d0 <= 1000000.0
0 <= tauS_dN <= 1000000.0
Generals
  k_c1
  k_c2
  k_c3
  k_c4
  k_dN
  phi_c1
  phi_c2
  phi_c3
  phi_c4
  phi_dN
  pi_c1
  pi_c2
  pi_c3
  pi_c4
  pi_dN
  tauD_c1
  tauD_c2
  tauD_c3
  tauD_c4
  tauD_d0
  tauD_dN
  tauS_c1
  tauS_c2
  tauS_c3
  tauS_c4
  tauS_d0
  tauS_dN
Binary
  o_1
  o_2
  o_3
  o_4
  p_1
  p_2
  p_3
  p_4
  x_c1_c2
  x_c1_c3
  x_c1_c4
  x_c1_dN
  x_c2_c1
  x_c2_c3
  x_c2_c4
  x_c2_dN
  x_c3_c1
  x_c3_c2
  x_c3_c4
  x_c3_dN
  x_c4_c1
  x_c4_c2
  x_c4_c3
  x_c4_dN
  x_d0_c1
  x_d0_c2
  x_d0_c3
  x_d0_c4
  z_c1_c2
  z_c1_c3
  z_c1_c4
  z_c1_dN
  z_c2_c1
  z_c2_c3
  z_c2_c4
  z_c2_dN
  z_c3_c1
  z_c3_c2
  z_c3_c4
  z_c3_dN
  z_c4_c1
  z_c4_c2
  z_c4_c3
  z_c4_dN
  z_d0_c1
  z_d0_c2
  z_d0_c3
  z_d0_c4
End
