VRPTWMS/instances/mip/fuel_F5/4/N4-C_DV100-C_SV25_F5_3_No_1.log

Gurobi 6.0.4 (win64) logging started 06/18/15 20:04:57

Read LP format model from file E:\Eigene Dateien\Downloads\Michi shit\VRPTWMS2\instances\mip\fuel\N4-C_DV100-C_SV25_F5_3_No_1.lp
Reading time = 0.00 seconds
(null): 129 rows, 76 columns, 459 nonzeros
Optimize a model with 129 rows, 76 columns and 459 nonzeros
Model has 80 quadratic constraints
Coefficient statistics:
  Matrix range    [1e+00, 1e+06]
  Objective range [2e+05, 1e+07]
  Bounds range    [1e+00, 1e+06]
  RHS range       [1e+00, 1e+06]
Presolve removed 25 rows and 15 columns
Presolve time: 0.01s
Presolved: 235 rows, 131 columns, 1008 nonzeros
Variable types: 61 continuous, 70 integer (48 binary)
Found heuristic solution: objective 2.142890e+07

Root relaxation: objective 1.167570e+07, 26 iterations, 0.00 seconds

    Nodes    |    Current Node    |     Objective Bounds      |     Work
 Expl Unexpl |  Obj  Depth IntInf | Incumbent    BestBd   Gap | It/Node Time

     0     0 1.1676e+07    0    3 2.1429e+07 1.1676e+07  45.5%     -    0s
     0     0 infeasible    0      2.1429e+07 2.1429e+07  0.00%     -    0s

Explored 0 nodes (46 simplex iterations) in 0.01 seconds
Thread count was 4 (of 4 available processors)

Optimal solution found (tolerance 1.00e-04)
Best objective 2.142890000000e+07, best bound 2.142890000000e+07, gap 0.0%
k_c1	40000.0
k_c2	80000.0
k_c3	960000.0
k_c4	40000.0
k_dN	-0.0
o_1	-0.0
o_2	-0.0
o_3	-0.0
o_4	-0.0
p_1	-0.0
p_2	-0.0
p_3	-0.0
p_4	-0.0
phi_c1	19942.0
phi_c2	35329.0
phi_c3	37222.0
phi_c4	16470.0
phi_dN	-0.0
pi_c1	-0.0
pi_c2	-0.0
pi_c3	-0.0
pi_c4	-0.0
pi_dN	-0.0
tauD_c1	800000.0
tauD_c2	200000.0
tauD_c3	161250.0
tauD_c4	450000.0
tauD_d0	-0.0
tauD_dN	1000000.0
tauS_c1	858975.0
tauS_c2	-0.0
tauS_c3	25025.0
tauS_c4	58550.0
tauS_d0	-0.0
tauS_dN	1025.0
x_c1_dN	1.0
x_c2_c1	1.0
x_c3_c4	1.0
x_c4_dN	1.0
x_d0_c2	1.0
x_d0_c3	1.0
